60
1 0 5
2 0 1
2 1 6
3 0 3
3 1 3
3 2 5
4 0 2
4 1 5
4 2 1
4 3 1
5 0 1
5 1 4
5 2 1
5 3 2
5 4 3
6 0 3
6 1 2
6 2 6
6 3 4
6 4 5
6 5 2
7 0 1
7 1 1
7 2 5
7 3 6
7 4 1
7 5 1
7 6 5
8 0 6
8 1 2
8 2 2
8 3 2
8 4 5
8 5 4
8 6 2
8 7 4
9 0 4
9 1 5
9 2 5
9 3 6
9 4 3
9 5 2
9 6 3
9 7 3
9 8 5
10 0 1
10 1 2
10 2 4
10 3 2
10 4 3
10 5 5
10 6 1
10 7 4
10 8 4
10 9 5
11 0 3
11 1 1
11 2 2
11 3 1
11 4 6
11 5 4
11 6 1
11 7 1
11 8 6
11 9 1
11 10 1
12 0 6
12 1 5
12 2 2
12 3 2
12 4 1
12 5 3
12 6 4
12 7 3
12 8 3
12 9 4
12 10 2
12 11 2
13 0 2
13 1 5
13 2 2
13 3 2
13 4 4
13 5 2
13 6 1
13 7 4
13 8 1
13 9 1
13 10 2
13 11 1
13 12 5
14 0 4
14 1 5
14 2 2
14 3 2
14 4 2
14 5 2
14 6 3
14 7 5
14 8 1
14 9 1
14 10 5
14 11 4
14 12 5
14 13 3
15 0 1
15 1 4
15 2 6
15 3 1
15 4 1
15 5 3
15 6 3
15 7 5
15 8 1
15 9 2
15 10 6
15 11 6
15 12 2
15 13 5
15 14 1
16 0 6
16 1 6
16 2 5
16 3 2
16 4 6
16 5 5
16 6 4
16 7 1
16 8 2
16 9 6
16 10 4
16 11 4
16 12 5
16 13 4
16 14 5
16 15 1
17 0 1
17 1 1
17 2 1
17 3 6
17 4 6
17 5 4
17 6 5
17 7 5
17 8 6
17 9 3
17 10 6
17 11 6
17 12 3
17 13 2
17 14 5
17 15 4
17 16 3
18 0 2
18 1 5
18 2 4
18 3 1
18 4 4
18 5 5
18 6 4
18 7 5
18 8 1
18 9 3
18 10 1
18 11 3
18 12 6
18 13 5
18 14 5
18 15 5
18 16 3
18 17 6
19 0 3
19 1 5
19 2 1
19 3 3
19 4 5
19 5 4
19 6 5
19 7 4
19 8 6
19 9 3
19 10 4
19 11 5
19 12 2
19 13 6
19 14 3
19 15 3
19 16 1
19 17 4
19 18 1
20 0 4
20 1 6
20 2 3
20 3 5
20 4 5
20 5 4
20 6 1
20 7 5
20 8 6
20 9 2
20 10 2
20 11 5
20 12 2
20 13 3
20 14 6
20 15 4
20 16 3
20 17 5
20 18 2
20 19 1
21 0 3
21 1 4
21 2 4
21 3 4
21 4 3
21 5 1
21 6 2
21 7 1
21 8 6
21 9 1
21 10 3
21 11 1
21 12 6
21 13 4
21 14 2
21 15 1
21 16 3
21 17 4
21 18 2
21 19 5
21 20 5
22 0 4
22 1 3
22 2 1
22 3 6
22 4 3
22 5 5
22 6 1
22 7 5
22 8 6
22 9 1
22 10 6
22 11 6
22 12 4
22 13 1
22 14 3
22 15 4
22 16 3
22 17 1
22 18 2
22 19 6
22 20 3
22 21 6
23 0 2
23 1 4
23 2 5
23 3 2
23 4 6
23 5 1
23 6 3
23 7 5
23 8 1
23 9 5
23 10 5
23 11 4
23 12 5
23 13 5
23 14 6
23 15 6
23 16 4
23 17 6
23 18 3
23 19 2
23 20 4
23 21 5
23 22 1
24 0 4
24 1 2
24 2 6
24 3 5
24 4 4
24 5 2
24 6 6
24 7 5
24 8 3
24 9 2
24 10 6
24 11 3
24 12 4
24 13 3
24 14 4
24 15 4
24 16 6
24 17 2
24 18 6
24 19 3
24 20 6
24 21 1
24 22 1
24 23 3
25 0 3
25 1 4
25 2 2
25 3 1
25 4 2
25 5 5
25 6 3
25 7 2
25 8 6
25 9 3
25 10 6
25 11 5
25 12 3
25 13 3
25 14 2
25 15 6
25 16 4
25 17 2
25 18 2
25 19 5
25 20 5
25 21 2
25 22 5
25 23 5
25 24 1
26 0 2
26 1 6
26 2 4
26 3 6
26 4 5
26 5 1
26 6 3
26 7 6
26 8 6
26 9 5
26 10 6
26 11 4
26 12 1
26 13 3
26 14 5
26 15 4
26 16 5
26 17 5
26 18 1
26 19 3
26 20 1
26 21 3
26 22 3
26 23 1
26 24 6
26 25 3
27 0 2
27 1 1
27 2 3
27 3 1
27 4 1
27 5 6
27 6 2
27 7 4
27 8 2
27 9 4
27 10 1
27 11 1
27 12 6
27 13 6
27 14 2
27 15 5
27 16 5
27 17 2
27 18 6
27 19 4
27 20 4
27 21 6
27 22 2
27 23 5
27 24 2
27 25 6
27 26 6
28 0 1
28 1 6
28 2 4
28 3 4
28 4 5
28 5 5
28 6 5
28 7 6
28 8 4
28 9 6
28 10 1
28 11 6
28 12 6
28 13 6
28 14 6
28 15 6
28 16 2
28 17 3
28 18 4
28 19 5
28 20 6
28 21 3
28 22 1
28 23 3
28 24 4
28 25 1
28 26 4
28 27 6
29 0 6
29 1 6
29 2 3
29 3 1
29 4 6
29 5 3
29 6 4
29 7 3
29 8 6
29 9 3
29 10 5
29 11 1
29 12 5
29 13 5
29 14 3
29 15 3
29 16 6
29 17 3
29 18 6
29 19 2
29 20 4
29 21 3
29 22 4
29 23 3
29 24 3
29 25 5
29 26 1
29 27 6
29 28 6
30 0 2
30 1 1
30 2 5
30 3 6
30 4 1
30 5 3
30 6 4
30 7 1
30 8 4
30 9 2
30 10 4
30 11 2
30 12 6
30 13 1
30 14 6
30 15 4
30 16 1
30 17 2
30 18 4
30 19 2
30 20 1
30 21 6
30 22 2
30 23 1
30 24 2
30 25 6
30 26 5
30 27 3
30 28 5
30 29 2
31 0 6
31 1 4
31 2 6
31 3 2
31 4 6
31 5 3
31 6 5
31 7 4
31 8 1
31 9 1
31 10 6
31 11 5
31 12 4
31 13 5
31 14 3
31 15 4
31 16 4
31 17 1
31 18 1
31 19 6
31 20 3
31 21 1
31 22 4
31 23 3
31 24 4
31 25 6
31 26 3
31 27 4
31 28 5
31 29 2
31 30 2
32 0 5
32 1 2
32 2 6
32 3 1
32 4 5
32 5 3
32 6 4
32 7 1
32 8 2
32 9 1
32 10 5
32 11 6
32 12 3
32 13 6
32 14 1
32 15 6
32 16 3
32 17 2
32 18 6
32 19 4
32 20 3
32 21 2
32 22 1
32 23 3
32 24 3
32 25 3
32 26 1
32 27 3
32 28 1
32 29 3
32 30 2
32 31 4
33 0 3
33 1 1
33 2 6
33 3 2
33 4 1
33 5 6
33 6 1
33 7 2
33 8 5
33 9 1
33 10 2
33 11 4
33 12 3
33 13 1
33 14 5
33 15 4
33 16 4
33 17 1
33 18 1
33 19 3
33 20 3
33 21 6
33 22 4
33 23 3
33 24 2
33 25 2
33 26 6
33 27 2
33 28 4
33 29 6
33 30 5
33 31 4
33 32 6
34 0 5
34 1 3
34 2 6
34 3 5
34 4 3
34 5 1
34 6 3
34 7 2
34 8 4
34 9 5
34 10 2
34 11 6
34 12 2
34 13 2
34 14 6
34 15 5
34 16 5
34 17 3
34 18 2
34 19 5
34 20 6
34 21 4
34 22 5
34 23 5
34 24 1
34 25 2
34 26 5
34 27 1
34 28 2
34 29 5
34 30 2
34 31 6
34 32 4
34 33 3
35 0 2
35 1 6
35 2 2
35 3 1
35 4 6
35 5 1
35 6 6
35 7 4
35 8 2
35 9 6
35 10 6
35 11 5
35 12 2
35 13 5
35 14 4
35 15 6
35 16 1
35 17 1
35 18 2
35 19 2
35 20 5
35 21 2
35 22 3
35 23 1
35 24 3
35 25 1
35 26 5
35 27 2
35 28 5
35 29 2
35 30 1
35 31 4
35 32 1
35 33 2
35 34 2
36 0 4
36 1 4
36 2 3
36 3 5
36 4 2
36 5 2
36 6 1
36 7 4
36 8 3
36 9 1
36 10 3
36 11 2
36 12 2
36 13 6
36 14 2
36 15 3
36 16 6
36 17 6
36 18 2
36 19 3
36 20 4
36 21 2
36 22 1
36 23 1
36 24 3
36 25 3
36 26 1
36 27 2
36 28 1
36 29 1
36 30 6
36 31 4
36 32 5
36 33 1
36 34 1
36 35 1
37 0 4
37 1 1
37 2 4
37 3 1
37 4 1
37 5 6
37 6 4
37 7 6
37 8 6
37 9 4
37 10 1
37 11 1
37 12 4
37 13 5
37 14 1
37 15 4
37 16 6
37 17 3
37 18 3
37 19 5
37 20 3
37 21 4
37 22 1
37 23 4
37 24 6
37 25 3
37 26 4
37 27 6
37 28 3
37 29 3
37 30 5
37 31 4
37 32 4
37 33 4
37 34 3
37 35 6
37 36 6
38 0 4
38 1 3
38 2 4
38 3 4
38 4 4
38 5 5
38 6 1
38 7 4
38 8 5
38 9 4
38 10 2
38 11 2
38 12 4
38 13 2
38 14 2
38 15 5
38 16 4
38 17 5
38 18 3
38 19 4
38 20 3
38 21 1
38 22 5
38 23 2
38 24 2
38 25 5
38 26 6
38 27 1
38 28 3
38 29 5
38 30 1
38 31 4
38 32 2
38 33 3
38 34 2
38 35 3
38 36 3
38 37 4
39 0 6
39 1 6
39 2 2
39 3 3
39 4 6
39 5 5
39 6 4
39 7 3
39 8 2
39 9 1
39 10 3
39 11 6
39 12 2
39 13 6
39 14 2
39 15 5
39 16 2
39 17 2
39 18 6
39 19 4
39 20 6
39 21 1
39 22 4
39 23 1
39 24 4
39 25 5
39 26 4
39 27 2
39 28 5
39 29 5
39 30 3
39 31 3
39 32 3
39 33 4
39 34 4
39 35 6
39 36 4
39 37 3
39 38 4
40 0 6
40 1 4
40 2 2
40 3 2
40 4 1
40 5 1
40 6 4
40 7 1
40 8 6
40 9 4
40 10 1
40 11 4
40 12 2
40 13 5
40 14 1
40 15 6
40 16 2
40 17 6
40 18 4
40 19 6
40 20 1
40 21 1
40 22 3
40 23 6
40 24 2
40 25 5
40 26 4
40 27 2
40 28 1
40 29 1
40 30 5
40 31 3
40 32 4
40 33 4
40 34 1
40 35 2
40 36 6
40 37 2
40 38 4
40 39 2
41 0 6
41 1 6
41 2 3
41 3 2
41 4 3
41 5 5
41 6 5
41 7 3
41 8 1
41 9 4
41 10 5
41 11 3
41 12 3
41 13 2
41 14 5
41 15 1
41 16 5
41 17 1
41 18 1
41 19 5
41 20 2
41 21 6
41 22 6
41 23 1
41 24 4
41 25 3
41 26 1
41 27 3
41 28 5
41 29 6
41 30 6
41 31 2
41 32 6
41 33 4
41 34 4
41 35 2
41 36 2
41 37 6
41 38 6
41 39 1
41 40 5
42 0 3
42 1 2
42 2 4
42 3 5
42 4 5
42 5 5
42 6 4
42 7 3
42 8 6
42 9 4
42 10 6
42 11 3
42 12 5
42 13 5
42 14 3
42 15 6
42 16 1
42 17 1
42 18 4
42 19 3
42 20 4
42 21 2
42 22 4
42 23 3
42 24 6
42 25 6
42 26 2
42 27 5
42 28 4
42 29 4
42 30 4
42 31 2
42 32 5
42 33 5
42 34 2
42 35 5
42 36 1
42 37 6
42 38 6
42 39 5
42 40 6
42 41 5
43 0 6
43 1 6
43 2 1
43 3 2
43 4 5
43 5 3
43 6 1
43 7 1
43 8 3
43 9 4
43 10 5
43 11 1
43 12 2
43 13 1
43 14 4
43 15 4
43 16 3
43 17 5
43 18 6
43 19 1
43 20 2
43 21 1
43 22 1
43 23 6
43 24 5
43 25 6
43 26 5
43 27 3
43 28 1
43 29 3
43 30 1
43 31 5
43 32 2
43 33 5
43 34 3
43 35 6
43 36 4
43 37 2
43 38 6
43 39 6
43 40 1
43 41 2
43 42 5
44 0 4
44 1 6
44 2 5
44 3 2
44 4 2
44 5 2
44 6 3
44 7 5
44 8 5
44 9 2
44 10 2
44 11 4
44 12 4
44 13 4
44 14 4
44 15 4
44 16 4
44 17 1
44 18 1
44 19 5
44 20 4
44 21 4
44 22 6
44 23 4
44 24 2
44 25 3
44 26 1
44 27 4
44 28 1
44 29 5
44 30 6
44 31 3
44 32 4
44 33 1
44 34 2
44 35 3
44 36 5
44 37 1
44 38 4
44 39 5
44 40 4
44 41 5
44 42 4
44 43 1
45 0 6
45 1 3
45 2 6
45 3 6
45 4 1
45 5 6
45 6 4
45 7 6
45 8 6
45 9 6
45 10 6
45 11 5
45 12 2
45 13 5
45 14 2
45 15 6
45 16 2
45 17 6
45 18 2
45 19 5
45 20 2
45 21 2
45 22 4
45 23 4
45 24 3
45 25 5
45 26 4
45 27 6
45 28 5
45 29 5
45 30 2
45 31 6
45 32 5
45 33 5
45 34 2
45 35 3
45 36 6
45 37 4
45 38 2
45 39 5
45 40 6
45 41 6
45 42 6
45 43 5
45 44 5
46 0 6
46 1 1
46 2 2
46 3 6
46 4 1
46 5 4
46 6 1
46 7 2
46 8 4
46 9 4
46 10 6
46 11 6
46 12 3
46 13 5
46 14 6
46 15 1
46 16 5
46 17 3
46 18 6
46 19 4
46 20 2
46 21 3
46 22 1
46 23 6
46 24 4
46 25 3
46 26 5
46 27 5
46 28 3
46 29 5
46 30 5
46 31 4
46 32 6
46 33 1
46 34 2
46 35 1
46 36 2
46 37 4
46 38 6
46 39 3
46 40 1
46 41 5
46 42 2
46 43 3
46 44 6
46 45 1
47 0 5
47 1 4
47 2 1
47 3 6
47 4 4
47 5 4
47 6 3
47 7 4
47 8 3
47 9 2
47 10 2
47 11 1
47 12 1
47 13 3
47 14 5
47 15 3
47 16 2
47 17 2
47 18 6
47 19 1
47 20 5
47 21 3
47 22 5
47 23 4
47 24 6
47 25 2
47 26 5
47 27 3
47 28 6
47 29 6
47 30 1
47 31 2
47 32 5
47 33 6
47 34 3
47 35 5
47 36 2
47 37 4
47 38 2
47 39 2
47 40 5
47 41 6
47 42 6
47 43 4
47 44 4
47 45 4
47 46 4
48 0 4
48 1 1
48 2 2
48 3 5
48 4 5
48 5 3
48 6 4
48 7 2
48 8 4
48 9 5
48 10 4
48 11 4
48 12 4
48 13 5
48 14 3
48 15 6
48 16 2
48 17 4
48 18 6
48 19 2
48 20 1
48 21 4
48 22 4
48 23 5
48 24 5
48 25 6
48 26 2
48 27 1
48 28 6
48 29 4
48 30 6
48 31 4
48 32 4
48 33 3
48 34 4
48 35 6
48 36 4
48 37 3
48 38 2
48 39 1
48 40 3
48 41 5
48 42 6
48 43 4
48 44 3
48 45 1
48 46 5
48 47 1
49 0 6
49 1 5
49 2 6
49 3 3
49 4 2
49 5 5
49 6 1
49 7 2
49 8 6
49 9 5
49 10 1
49 11 3
49 12 5
49 13 2
49 14 6
49 15 2
49 16 5
49 17 1
49 18 1
49 19 3
49 20 2
49 21 3
49 22 5
49 23 2
49 24 5
49 25 2
49 26 3
49 27 6
49 28 6
49 29 3
49 30 3
49 31 2
49 32 6
49 33 6
49 34 3
49 35 3
49 36 5
49 37 3
49 38 1
49 39 5
49 40 6
49 41 3
49 42 1
49 43 4
49 44 2
49 45 5
49 46 1
49 47 4
49 48 3
50 0 2
50 1 5
50 2 1
50 3 5
50 4 4
50 5 3
50 6 6
50 7 6
50 8 2
50 9 1
50 10 5
50 11 3
50 12 4
50 13 3
50 14 6
50 15 5
50 16 5
50 17 2
50 18 3
50 19 5
50 20 2
50 21 1
50 22 2
50 23 5
50 24 4
50 25 2
50 26 6
50 27 4
50 28 5
50 29 5
50 30 5
50 31 6
50 32 4
50 33 1
50 34 3
50 35 6
50 36 5
50 37 1
50 38 6
50 39 5
50 40 2
50 41 5
50 42 6
50 43 5
50 44 1
50 45 5
50 46 5
50 47 3
50 48 5
50 49 3
51 0 2
51 1 4
51 2 1
51 3 6
51 4 4
51 5 6
51 6 3
51 7 3
51 8 1
51 9 5
51 10 2
51 11 2
51 12 4
51 13 4
51 14 1
51 15 6
51 16 5
51 17 1
51 18 3
51 19 3
51 20 2
51 21 3
51 22 3
51 23 5
51 24 2
51 25 6
51 26 6
51 27 3
51 28 5
51 29 4
51 30 6
51 31 3
51 32 3
51 33 6
51 34 1
51 35 6
51 36 2
51 37 3
51 38 4
51 39 6
51 40 6
51 41 3
51 42 1
51 43 1
51 44 3
51 45 2
51 46 5
51 47 3
51 48 5
51 49 6
51 50 5
52 0 2
52 1 4
52 2 5
52 3 1
52 4 1
52 5 2
52 6 3
52 7 6
52 8 6
52 9 4
52 10 4
52 11 1
52 12 3
52 13 1
52 14 2
52 15 2
52 16 3
52 17 2
52 18 5
52 19 3
52 20 4
52 21 2
52 22 3
52 23 1
52 24 5
52 25 1
52 26 5
52 27 1
52 28 2
52 29 5
52 30 4
52 31 6
52 32 1
52 33 3
52 34 3
52 35 2
52 36 1
52 37 5
52 38 4
52 39 3
52 40 5
52 41 4
52 42 4
52 43 4
52 44 4
52 45 4
52 46 5
52 47 1
52 48 2
52 49 3
52 50 5
52 51 5
53 0 1
53 1 3
53 2 6
53 3 5
53 4 1
53 5 4
53 6 1
53 7 6
53 8 1
53 9 1
53 10 4
53 11 1
53 12 5
53 13 4
53 14 5
53 15 1
53 16 4
53 17 1
53 18 6
53 19 5
53 20 2
53 21 5
53 22 4
53 23 4
53 24 4
53 25 3
53 26 6
53 27 4
53 28 3
53 29 3
53 30 4
53 31 4
53 32 1
53 33 1
53 34 6
53 35 2
53 36 6
53 37 3
53 38 6
53 39 5
53 40 3
53 41 5
53 42 1
53 43 1
53 44 1
53 45 6
53 46 1
53 47 3
53 48 6
53 49 5
53 50 3
53 51 5
53 52 1
54 0 4
54 1 3
54 2 5
54 3 6
54 4 4
54 5 4
54 6 1
54 7 6
54 8 5
54 9 5
54 10 2
54 11 5
54 12 6
54 13 3
54 14 3
54 15 6
54 16 1
54 17 4
54 18 3
54 19 4
54 20 4
54 21 1
54 22 5
54 23 1
54 24 3
54 25 2
54 26 6
54 27 5
54 28 1
54 29 6
54 30 6
54 31 3
54 32 5
54 33 3
54 34 1
54 35 3
54 36 6
54 37 6
54 38 6
54 39 4
54 40 6
54 41 6
54 42 3
54 43 5
54 44 5
54 45 2
54 46 4
54 47 4
54 48 4
54 49 2
54 50 4
54 51 5
54 52 4
54 53 6
55 0 5
55 1 1
55 2 1
55 3 4
55 4 3
55 5 5
55 6 6
55 7 1
55 8 6
55 9 5
55 10 4
55 11 3
55 12 5
55 13 3
55 14 4
55 15 2
55 16 1
55 17 6
55 18 4
55 19 1
55 20 4
55 21 3
55 22 5
55 23 2
55 24 2
55 25 5
55 26 5
55 27 4
55 28 3
55 29 4
55 30 4
55 31 2
55 32 2
55 33 6
55 34 1
55 35 5
55 36 1
55 37 1
55 38 6
55 39 2
55 40 1
55 41 6
55 42 5
55 43 3
55 44 5
55 45 5
55 46 4
55 47 1
55 48 1
55 49 1
55 50 3
55 51 6
55 52 2
55 53 6
55 54 2
56 0 5
56 1 3
56 2 5
56 3 5
56 4 3
56 5 1
56 6 3
56 7 4
56 8 6
56 9 5
56 10 3
56 11 6
56 12 5
56 13 6
56 14 1
56 15 2
56 16 1
56 17 6
56 18 2
56 19 4
56 20 2
56 21 5
56 22 2
56 23 3
56 24 4
56 25 1
56 26 4
56 27 1
56 28 2
56 29 1
56 30 1
56 31 1
56 32 4
56 33 2
56 34 3
56 35 3
56 36 2
56 37 5
56 38 4
56 39 2
56 40 2
56 41 3
56 42 3
56 43 1
56 44 3
56 45 2
56 46 3
56 47 2
56 48 6
56 49 6
56 50 5
56 51 3
56 52 3
56 53 2
56 54 6
56 55 4
57 0 3
57 1 2
57 2 6
57 3 6
57 4 3
57 5 1
57 6 2
57 7 3
57 8 3
57 9 2
57 10 6
57 11 4
57 12 6
57 13 6
57 14 6
57 15 5
57 16 3
57 17 5
57 18 2
57 19 6
57 20 5
57 21 1
57 22 1
57 23 5
57 24 4
57 25 5
57 26 4
57 27 3
57 28 6
57 29 5
57 30 1
57 31 3
57 32 2
57 33 3
57 34 2
57 35 3
57 36 1
57 37 2
57 38 1
57 39 2
57 40 6
57 41 2
57 42 3
57 43 4
57 44 5
57 45 5
57 46 6
57 47 1
57 48 5
57 49 3
57 50 3
57 51 5
57 52 4
57 53 1
57 54 2
57 55 1
57 56 5
58 0 1
58 1 5
58 2 3
58 3 4
58 4 2
58 5 4
58 6 2
58 7 2
58 8 4
58 9 5
58 10 2
58 11 5
58 12 2
58 13 4
58 14 5
58 15 3
58 16 6
58 17 5
58 18 4
58 19 1
58 20 1
58 21 4
58 22 3
58 23 4
58 24 1
58 25 4
58 26 6
58 27 6
58 28 1
58 29 4
58 30 1
58 31 4
58 32 3
58 33 2
58 34 4
58 35 3
58 36 5
58 37 5
58 38 4
58 39 4
58 40 4
58 41 1
58 42 1
58 43 2
58 44 1
58 45 6
58 46 1
58 47 2
58 48 5
58 49 6
58 50 2
58 51 4
58 52 1
58 53 1
58 54 6
58 55 4
58 56 6
58 57 1
59 0 1
59 1 2
59 2 3
59 3 4
59 4 2
59 5 3
59 6 6
59 7 5
59 8 2
59 9 1
59 10 2
59 11 6
59 12 4
59 13 3
59 14 4
59 15 3
59 16 5
59 17 3
59 18 1
59 19 4
59 20 1
59 21 5
59 22 1
59 23 4
59 24 6
59 25 5
59 26 6
59 27 4
59 28 4
59 29 5
59 30 4
59 31 2
59 32 3
59 33 3
59 34 3
59 35 5
59 36 5
59 37 2
59 38 6
59 39 2
59 40 2
59 41 6
59 42 3
59 43 1
59 44 1
59 45 6
59 46 2
59 47 3
59 48 3
59 49 2
59 50 2
59 51 5
59 52 3
59 53 5
59 54 1
59 55 6
59 56 3
59 57 3
59 58 4
